Problem:    
Rows:       85
Columns:    218 (218 integer, 218 binary)
Non-zeros:  1162
Status:     INTEGER OPTIMAL
Objective:  score = 60894 (MAXimum)

   No.   Row name        Activity     Lower bound   Upper bound
------ ------------    ------------- ------------- -------------
     1 index_0                    22             0               
     2 index_1                     0             0               
     3 index_2                     0             0               
     4 index_3                     0             0               
     5 index_4                     0             0               
     6 index_5                     0             0               
     7 index_6                     0             0               
     8 index_7                     0             0               
     9 index_8                     0             0               
    10 index_9                     0             0               
    11 index_10                    0             0               
    12 index_11                    0             0               
    13 index_12                    1             0               
    14 index_13                    1             0               
    15 index_14                    0             0               
    16 index_15                    2             0               
    17 index_16                    2             0               
    18 index_17                    0             0               
    19 index_18                    0             0               
    20 index_19                    0             0               
    21 index_20                    1             0               
    22 index_21                    0             0               
    23 index_22                    3             0               
    24 index_23                    1             0               
    25 index_24                    0             0               
    26 index_25                    0             0               
    27 index_26                    1             0               
    28 index_27                    0             0               
    29 index_28                    0             0               
    30 index_29                    0             0               
    31 index_30                    2             0               
    32 index_31                    2             0               
    33 index_32                    0             0               
    34 index_33                    0             0               
    35 index_34                    0             0               
    36 index_35                    0             0               
    37 index_36                    0             0               
    38 index_37                    0             0               
    39 index_38                    0             0               
    40 index_39                    0             0               
    41 index_40                    0             0               
    42 index_41                    0             0               
    43 index_42                    0             0               
    44 index_43                    0             0               
    45 index_44                    0             0               
    46 index_45                    2             0               
    47 index_46                    2             0               
    48 index_47                    0             0               
    49 index_48                    0             0               
    50 index_49                    1             0               
    51 index_50                    0             0               
    52 index_51                    1             0               
    53 index_52                    0             0               
    54 index_53                    0             0               
    55 index_54                    0             0               
    56 index_55                    3             0               
    57 index_56                    0             0               
    58 index_57                    0             0               
    59 index_58                    2             0               
    60 index_59                    0             0               
    61 index_60                    1             0               
    62 index_61                    0             0               
    63 index_62                    0             0               
    64 index_63                    1             0               
    65 index_64                    1             0               
    66 index_65                    0             0               
    67 index_66                    2             0               
    68 index_67                    0             0               
    69 index_68                    7             0               
    70 index_69                    2             0               
    71 index_70                    0             0               
    72 index_71                    0             0               
    73 index_72                    0             0               
    74 index_73                    1             0               
    75 index_74                    4             0               
    76 index_75                    1             0               
    77 index_76                    1             0               
    78 index_77                    1             0               
    79 index_78                    0             0               
    80 index_79                   13             0               
    81 index_80                    0             0               
    82 index_81                    0             0               
    83 index_82                    0             0               
    84 index_83                    0             0               
    85 length                   3009                        7125 

   No. Column name       Activity     Lower bound   Upper bound
------ ------------    ------------- ------------- -------------
     1 c0           *              1             0             1 
     2 c1           *              1             0             1 
     3 c2           *              1             0             1 
     4 c3           *              1             0             1 
     5 c4           *              1             0             1 
     6 c5           *              1             0             1 
     7 c6           *              1             0             1 
     8 c7           *              1             0             1 
     9 c8           *              1             0             1 
    10 c9           *              1             0             1 
    11 c10          *              1             0             1 
    12 c11          *              1             0             1 
    13 c12          *              1             0             1 
    14 c13          *              1             0             1 
    15 c14          *              1             0             1 
    16 c15          *              1             0             1 
    17 c16          *              1             0             1 
    18 c17          *              1             0             1 
    19 c18          *              1             0             1 
    20 c19          *              1             0             1 
    21 c20          *              1             0             1 
    22 c21          *              1             0             1 
    23 c22          *              1             0             1 
    24 c23          *              1             0             1 
    25 c24          *              1             0             1 
    26 c25          *              1             0             1 
    27 c26          *              1             0             1 
    28 c27          *              1             0             1 
    29 c28          *              1             0             1 
    30 c29          *              1             0             1 
    31 c30          *              1             0             1 
    32 c31          *              1             0             1 
    33 c32          *              1             0             1 
    34 c33          *              1             0             1 
    35 c34          *              1             0             1 
    36 c35          *              1             0             1 
    37 c36          *              1             0             1 
    38 c37          *              1             0             1 
    39 c38          *              1             0             1 
    40 c39          *              1             0             1 
    41 c40          *              1             0             1 
    42 c41          *              1             0             1 
    43 c42          *              1             0             1 
    44 c43          *              1             0             1 
    45 c44          *              1             0             1 
    46 c45          *              1             0             1 
    47 c46          *              1             0             1 
    48 c47          *              1             0             1 
    49 c48          *              1             0             1 
    50 c49          *              1             0             1 
    51 c50          *              1             0             1 
    52 c51          *              1             0             1 
    53 c52          *              1             0             1 
    54 c53          *              1             0             1 
    55 c54          *              1             0             1 
    56 c55          *              1             0             1 
    57 c56          *              1             0             1 
    58 c57          *              1             0             1 
    59 c58          *              1             0             1 
    60 c59          *              1             0             1 
    61 c60          *              1             0             1 
    62 c61          *              1             0             1 
    63 c62          *              1             0             1 
    64 c63          *              1             0             1 
    65 c64          *              1             0             1 
    66 c65          *              1             0             1 
    67 c66          *              1             0             1 
    68 c67          *              1             0             1 
    69 c68          *              1             0             1 
    70 c69          *              1             0             1 
    71 c70          *              1             0             1 
    72 c71          *              1             0             1 
    73 c72          *              1             0             1 
    74 c73          *              1             0             1 
    75 c74          *              1             0             1 
    76 c75          *              1             0             1 
    77 c76          *              1             0             1 
    78 c77          *              1             0             1 
    79 c78          *              1             0             1 
    80 c79          *              1             0             1 
    81 c80          *              1             0             1 
    82 c81          *              1             0             1 
    83 c82          *              1             0             1 
    84 c83          *              1             0             1 
    85 s0           *              1             0             1 
    86 s1           *              0             0             1 
    87 s2           *              0             0             1 
    88 s3           *              0             0             1 
    89 s4           *              0             0             1 
    90 s5           *              0             0             1 
    91 s6           *              1             0             1 
    92 s7           *              0             0             1 
    93 s8           *              1             0             1 
    94 s9           *              0             0             1 
    95 s10          *              1             0             1 
    96 s11          *              0             0             1 
    97 s12          *              0             0             1 
    98 s13          *              1             0             1 
    99 s14          *              1             0             1 
   100 s15          *              0             0             1 
   101 s16          *              0             0             1 
   102 s17          *              0             0             1 
   103 s18          *              0             0             1 
   104 s19          *              0             0             1 
   105 s20          *              0             0             1 
   106 s21          *              0             0             1 
   107 s22          *              1             0             1 
   108 s23          *              0             0             1 
   109 s24          *              0             0             1 
   110 s25          *              0             0             1 
   111 s26          *              0             0             1 
   112 s27          *              1             0             1 
   113 s28          *              0             0             1 
   114 s29          *              1             0             1 
   115 s30          *              0             0             1 
   116 s31          *              0             0             1 
   117 s32          *              0             0             1 
   118 s33          *              0             0             1 
   119 s34          *              1             0             1 
   120 s36          *              0             0             1 
   121 s37          *              1             0             1 
   122 s38          *              0             0             1 
   123 s39          *              0             0             1 
   124 s40          *              0             0             1 
   125 s41          *              1             0             1 
   126 s42          *              0             0             1 
   127 s43          *              1             0             1 
   128 s44          *              0             0             1 
   129 s45          *              1             0             1 
   130 s46          *              0             0             1 
   131 s47          *              1             0             1 
   132 s48          *              0             0             1 
   133 s49          *              0             0             1 
   134 s50          *              0             0             1 
   135 s51          *              0             0             1 
   136 s52          *              0             0             1 
   137 s53          *              1             0             1 
   138 s54          *              0             0             1 
   139 s55          *              0             0             1 
   140 s56          *              0             0             1 
   141 s57          *              0             0             1 
   142 s58          *              0             0             1 
   143 s59          *              0             0             1 
   144 s60          *              0             0             1 
   145 s61          *              0             0             1 
   146 s62          *              0             0             1 
   147 s63          *              0             0             1 
   148 s64          *              0             0             1 
   149 s66          *              0             0             1 
   150 s67          *              0             0             1 
   151 s68          *              0             0             1 
   152 s69          *              0             0             1 
   153 s70          *              0             0             1 
   154 s71          *              0             0             1 
   155 s72          *              0             0             1 
   156 s73          *              0             0             1 
   157 s74          *              0             0             1 
   158 s75          *              0             0             1 
   159 s76          *              1             0             1 
   160 s77          *              0             0             1 
   161 s78          *              0             0             1 
   162 s80          *              0             0             1 
   163 s81          *              0             0             1 
   164 s83          *              0             0             1 
   165 s85          *              0             0             1 
   166 s86          *              0             0             1 
   167 s88          *              0             0             1 
   168 s90          *              0             0             1 
   169 s91          *              0             0             1 
   170 s92          *              0             0             1 
   171 s94          *              0             0             1 
   172 s95          *              0             0             1 
   173 s96          *              0             0             1 
   174 s98          *              0             0             1 
   175 s99          *              0             0             1 
   176 s100         *              0             0             1 
   177 s101         *              0             0             1 
   178 s102         *              0             0             1 
   179 s104         *              0             0             1 
   180 s105         *              0             0             1 
   181 s106         *              0             0             1 
   182 s107         *              0             0             1 
   183 s108         *              0             0             1 
   184 s109         *              0             0             1 
   185 s110         *              0             0             1 
   186 s111         *              0             0             1 
   187 s112         *              0             0             1 
   188 s113         *              0             0             1 
   189 s114         *              0             0             1 
   190 s115         *              0             0             1 
   191 s116         *              1             0             1 
   192 s117         *              0             0             1 
   193 s118         *              0             0             1 
   194 s119         *              0             0             1 
   195 s120         *              0             0             1 
   196 s121         *              1             0             1 
   197 s122         *              0             0             1 
   198 s123         *              0             0             1 
   199 s124         *              1             0             1 
   200 s125         *              0             0             1 
   201 s126         *              0             0             1 
   202 s127         *              0             0             1 
   203 s128         *              0             0             1 
   204 s129         *              0             0             1 
   205 s130         *              1             0             1 
   206 s131         *              1             0             1 
   207 s132         *              1             0             1 
   208 s133         *              0             0             1 
   209 s84          *              1             0             1 
   210 s87          *              0             0             1 
   211 s97          *              0             0             1 
   212 s79          *              0             0             1 
   213 s82          *              0             0             1 
   214 s93          *              0             0             1 
   215 s35          *              1             0             1 
   216 s65          *              0             0             1 
   217 s89          *              0             0             1 
   218 s103         *              0             0             1 

Integer feasibility conditions:

KKT.PE: max.abs.err = 0.00e+00 on row 0
        max.rel.err = 0.00e+00 on row 0
        High quality

KKT.PB: max.abs.err = 0.00e+00 on row 0
        max.rel.err = 0.00e+00 on row 0
        High quality

End of output
